data;

set A := 271 79 382 273 142 226 172 133 861 853 856 350 868 758 343 963 965 593 729 832 667 752 38 514 60 877 617 298 369 12 247 319 451 732 614 725 892 536 355 870 248 527 855 757 666 600 626 165 235 2 975 945 473 454 692 606 576 198 73 397 844 759 830 831 490 881 47 609 996 819 977 504 155 585 476 524 29 816 880 926;
param T := 20000;

end;
